sat
(
(define-fun H () String "")
(define-fun I () String "aabbb")
(define-fun G () String "")
(define-fun F () String "")
(define-fun L () String "")
(define-fun N () String "")
(define-fun O () String "")
(define-fun P () String "aaaabbbaabbbaa")
)
